; benchmark generated from python API
(set-info :status unknown)
(declare-datatypes ((RealState 0)) (((RMk1 (rval1 Real)) (RMk2 (rval2 Real)))))
 (assert
 (forall ((|v11:0| Real) )(forall ((|v10:1| Real) )(forall ((|v9:2| Real) )(forall ((|v8:3| Real) )(exists ((|v7:4_st| RealState) (val!4392 Real) )(exists ((|v6:5_st| RealState) (val!4393 Real) )(exists ((|v5:6_st| RealState) (val!4394 Real) )(exists ((|v4:7_st| RealState) (val!4395 Real) )(forall ((|v3:8| Real) )(forall ((|v2:9| Real) )(forall ((|v1:10| Real) )(forall ((|v0:11| Real) )(let ((?x277 (- 6.0)))
 (let ((?x2760 (* 19.0 |v0:11|)))
 (let ((?x2948 (+ (+ (+ (* (- 5.0) |v0:11|) (* 15.0 |v3:8|)) (* (- 5.0) |v0:11|)) ?x2760)))
 (let (($x1617 (<= ?x2948 ?x277)))
 (let ((?x1847 (- 9.0)))
 (let ((?x2061 (* 2.0 |v1:10|)))
 (let ((?x1722 (+ (+ (* (- 8.0) (rval2 |v4:7_st|)) (* (- 4.0) (rval2 |v7:4_st|))) (* 11.0 |v8:3|))))
 (let ((?x366 (* 16.0 |v11:0|)))
 (let ((?x81 (+ (+ (+ (* 12.0 (rval2 |v6:5_st|)) (* 5.0 |v1:10|)) (* (- 11.0) |v9:2|)) ?x366)))
 (let ((?x1509 (+ (+ (+ (* 6.0 |v10:1|) (* 3.0 |v0:11|)) (* 16.0 |v0:11|)) (* (- 18.0) (rval2 |v7:4_st|)))))
 (let (($x2125 (or (or (<= ?x1509 2.0) (<= ?x81 15.0)) (and (<= (+ ?x1722 ?x2061) ?x1847) $x1617))))
 (let ((?x2323 (+ (+ (* 14.0 |v8:3|) (* (- 17.0) |v0:11|)) (* (- 16.0) (rval2 |v5:6_st|)))))
 (let ((?x268 (- 12.0)))
 (let ((?x1070 (* 20.0 |v9:2|)))
 (let ((?x1711 (rval2 |v5:6_st|)))
 (let ((?x1339 (* 6.0 ?x1711)))
 (let (($x1440 (<= (+ (+ (+ (* (- 16.0) |v11:0|) (* 6.0 (rval2 |v6:5_st|))) ?x1339) ?x1070) ?x268)))
 (let ((?x1590 (- 18.0)))
 (let ((?x2892 (+ (+ (* (- 1.0) |v2:9|) (* (- 19.0) (rval2 |v7:4_st|))) (* 4.0 |v11:0|))))
 (let (($x1812 (and (<= (+ ?x2892 (* (- 2.0) |v9:2|)) ?x1590) (or $x1440 (<= (+ ?x2323 (* 5.0 |v10:1|)) 13.0)))))
 (let ((?x1325 (- 8.0)))
 (let ((?x2817 (* ?x1325 |v0:11|)))
 (let ((?x2202 (+ (+ (+ (* 8.0 |v8:3|) (* (- 11.0) (rval2 |v4:7_st|))) ?x2817) (* (- 11.0) ?x1711))))
 (let ((?x1787 (+ (+ (* (- 14.0) |v8:3|) (* ?x268 ?x1711)) (* (- 10.0) (rval2 |v6:5_st|)))))
 (let ((?x2923 (- 19.0)))
 (let ((?x2011 (* 10.0 |v11:0|)))
 (let ((?x214 (+ (+ (+ (* 8.0 |v3:8|) (* 11.0 (rval2 |v4:7_st|))) (rval2 |v7:4_st|)) ?x2011)))
 (let ((?x1633 (- 7.0)))
 (let ((?x876 (* 3.0 |v1:10|)))
 (let ((?x1546 (+ (+ (+ (* ?x1847 (rval2 |v7:4_st|)) (* 7.0 |v1:10|)) (* ?x277 |v1:10|)) ?x876)))
 (let (($x1307 (and (and (<= ?x1546 ?x1633) (<= ?x214 ?x2923)) (and (<= (+ ?x1787 (* (- 20.0) |v10:1|)) 4.0) (<= ?x2202 16.0)))))
 (let ((?x574 (- 3.0)))
 (let ((?x887 (* ?x574 |v0:11|)))
 (let ((?x1284 (+ (+ (+ (* (- 2.0) |v11:0|) (* 7.0 |v8:3|)) (* 0.0 |v10:1|)) ?x887)))
 (let ((?x3010 (+ (+ (+ (* ?x1633 (rval2 |v7:4_st|)) (* 3.0 |v3:8|)) (* 18.0 |v3:8|)) (* ?x1590 (rval2 |v4:7_st|)))))
 (let ((?x2347 (* 10.0 |v8:3|)))
 (let ((?x2686 (+ (+ (+ (* 18.0 |v2:9|) (* 2.0 |v2:9|)) (* (- 2.0) |v10:1|)) ?x2347)))
 (let (($x373 (or (and (<= ?x2686 0.0) (or (<= ?x3010 10.0) (<= ?x1284 16.0))) $x1307)))
 (let ((?x468 (rval2 |v4:7_st|)))
 (let ((?x675 (* 5.0 ?x468)))
 (let ((?x264 (+ (+ (+ (* 17.0 |v11:0|) (* 15.0 (rval2 |v6:5_st|))) ?x675) (* (- 4.0) ?x1711))))
 (let ((?x2367 (+ (+ (+ (* ?x1325 |v2:9|) (* 9.0 (rval2 |v7:4_st|))) (* ?x1847 |v1:10|)) (* (- 4.0) |v8:3|))))
 (let ((?x261 (+ (+ (* 0.0 |v10:1|) (* 9.0 (rval2 |v6:5_st|))) (* ?x574 (rval2 |v6:5_st|)))))
 (let ((?x1153 (* 5.0 |v3:8|)))
 (let ((?x2848 (+ (+ (+ (* 11.0 |v3:8|) (* (- 13.0) |v8:3|)) (* 15.0 ?x468)) ?x1153)))
 (let (($x292 (and (or (<= ?x2848 6.0) (<= (+ ?x261 (* (- 15.0) |v8:3|)) 17.0)) (<= ?x2367 6.0))))
 (let ((?x1050 (- 16.0)))
 (let ((?x2797 (+ (+ (+ (* 18.0 |v1:10|) (* 4.0 ?x468)) (* 5.0 |v0:11|)) (* ?x1847 ?x468))))
 (let ((?x48 (+ (+ (+ (* (- 2.0) (rval2 |v7:4_st|)) (* 4.0 |v2:9|)) (* 11.0 |v0:11|)) (* ?x2923 ?x468))))
 (let ((?x318 (+ (+ (+ (* 2.0 (rval2 |v6:5_st|)) (* ?x1325 ?x1711)) (* (- 2.0) |v8:3|)) (* (- 10.0) |v11:0|))))
 (let ((?x1774 (- 11.0)))
 (let ((?x934 (rval2 |v6:5_st|)))
 (let ((?x256 (* 9.0 ?x934)))
 (let (($x1603 (<= (+ (+ (+ (* ?x1050 |v2:9|) (* (- 17.0) |v10:1|)) (* ?x277 ?x934)) ?x256) ?x1774)))
 (let (($x1552 (and (or $x1603 (<= ?x318 2.0)) (and (<= ?x48 4.0) (<= ?x2797 ?x1050)))))
 (let ((?x977 (- 4.0)))
 (let (($x2526 (<= (+ (+ (+ (* ?x1325 |v11:0|) ?x675) (* 12.0 |v3:8|)) (* ?x277 |v9:2|)) ?x977)))
 (let (($x2563 (or $x2526 (and (and (and $x1552 $x292) (<= ?x264 ?x1633)) (or $x373 (or $x1812 $x2125))))))
 (let (($x3027 (not (= |v4:7_st| (RMk1 val!4395)))))
 (let (($x820 (not (= |v5:6_st| (RMk1 val!4394)))))
 (let (($x1286 (not (= |v6:5_st| (RMk1 val!4393)))))
 (let (($x2483 (not (= |v7:4_st| (RMk1 val!4392)))))
 (and $x2483 $x1286 $x820 $x3027 $x2563))))))))))))))))))))))))))))))))))))))))))))))))))))))))))))))))
 )
 )
 )
 )
 )
 )
 )
 )
 )
 )
 )
 )
(check-sat)
